set K := P1 P2;
param T := 6;
param h :    
     1   2   3   4   5   6 :=
P1   4   4   4   4   4   4       
P2   1   1   1   1   1   1 ;
param s := P1 100  P2 50;
param d :      
     1   2   3   4   5   6 :=
P1 110  49   0  82  40  65    
P2  48  75  15  10  15  70 ;
param y0 := P1 0  P2 0;
param tb := P1 1  P2 1;
param tr := P1 20  P2 20;
param b := 1 200  2 200  3 200  4 200  5 180  6 180;

end;
